p tw 66 291
0 1
0 26
0 2
0 14
0 15
0 3
1 15
1 14
1 22
1 2
1 3
2 3
2 15
2 14
2 45
3 14
3 15
3 4
4 5
4 6
4 7
4 8
4 9
4 10
4 11
4 12
4 13
5 6
5 7
5 8
5 9
5 10
5 11
5 12
5 13
6 7
6 8
6 9
6 10
6 11
6 12
6 13
7 8
7 9
7 10
7 11
7 12
7 13
8 9
8 10
8 11
8 12
8 13
9 10
9 11
9 12
9 13
10 11
10 12
10 13
11 12
11 13
12 13
14 15
14 27
15 37
16 17
16 18
16 19
16 20
16 21
16 22
16 23
16 24
16 25
17 18
17 19
17 20
17 21
17 22
17 23
17 24
17 25
18 19
18 20
18 21
18 22
18 23
18 24
18 25
19 20
19 21
19 22
19 23
19 24
19 25
20 21
20 22
20 23
20 24
20 25
21 22
21 23
21 24
21 25
22 23
22 24
22 25
23 24
23 25
24 25
26 57
26 58
26 59
26 60
26 61
26 62
26 63
26 64
26 65
27 28
27 29
27 30
27 31
27 32
27 33
27 34
27 35
27 36
28 29
28 30
28 31
28 32
28 33
28 34
28 35
28 36
29 30
29 31
29 32
29 33
29 34
29 35
29 36
30 31
30 32
30 33
30 34
30 35
30 36
31 32
31 33
31 34
31 35
31 36
32 33
32 34
32 35
32 36
33 34
33 35
33 36
34 35
34 36
35 36
37 48
37 49
37 50
37 51
37 52
37 53
37 54
37 55
37 56
38 39
38 40
38 41
38 42
38 43
38 44
38 45
38 46
38 47
39 40
39 41
39 42
39 43
39 44
39 45
39 46
39 47
40 41
40 42
40 43
40 44
40 45
40 46
40 47
41 42
41 43
41 44
41 45
41 46
41 47
42 43
42 44
42 45
42 46
42 47
43 44
43 45
43 46
43 47
44 45
44 46
44 47
45 46
45 47
46 47
48 49
48 50
48 51
48 52
48 53
48 54
48 55
48 56
49 50
49 51
49 52
49 53
49 54
49 55
49 56
50 51
50 52
50 53
50 54
50 55
50 56
51 52
51 53
51 54
51 55
51 56
52 53
52 54
52 55
52 56
53 54
53 55
53 56
54 55
54 56
55 56
57 58
57 59
57 60
57 61
57 62
57 63
57 64
57 65
58 59
58 60
58 61
58 62
58 63
58 64
58 65
59 60
59 61
59 62
59 63
59 64
59 65
60 61
60 62
60 63
60 64
60 65
61 62
61 63
61 64
61 65
62 63
62 64
62 65
63 64
63 65
64 65
